%%% static parameters %%%
timespan = 1;
initial_fruit_bushes = [40];
initial_foragers = [40];
ticks_to_flee = [100];
bush_growth_chance = [10];
rate_of_mutation = [5.0];
%%% dynamic parameters %%%
mean_strength_th = 0.9033500246662011;
mean_strength_w = 79;
mean_speed_th = 0.9732920164875685;
mean_speed_w = 45;
mean_intelligence_th = 0.18529663580937117;
mean_intelligence_w = 80;
murder_rate_th = 0.6911770421185747;
murder_rate_w = 41;
age_death_rate_th = 0.8445325600474425;
age_death_rate_w = 97;
starvation_rate_th = 0.3035478713885533;
starvation_rate_w = 10;
mean_reactive_aggression_th = 0.194908874101405;
mean_reactive_aggression_w = 49;
mean_proactive_aggression_th = 0.8770182856761668;
mean_proactive_aggression_w = 48;
average_population_th = 599;
average_population_w = 32;
